minisat.in
p cnf 8 13
3 0
-1 3 0
1 -3 0
-2  0
4 5 0
-4 -5 0
-1 4 0
1 -4 0
6 7 8 0
-6 -7 0
-6 -8 0
-7 -8 0
-2  0